db/inputs/1939614738864784191540029317576712215.smt2
(set-logic QF_FP)
(declare-const x0 (_ FloatingPoint 8 24))
(declare-const x1 (_ FloatingPoint 8 24))
(declare-const x2 (_ FloatingPoint 8 24))
(declare-const x3 (_ FloatingPoint 8 24))
(declare-const x4 (_ FloatingPoint 8 24))
(declare-const x5 (_ FloatingPoint 8 24))
(declare-const x6 (_ FloatingPoint 8 24))
(declare-const x7 (_ FloatingPoint 8 24))
(declare-const x8 (_ FloatingPoint 8 24))
(declare-const x9 (_ FloatingPoint 8 24))
(declare-const x10 (_ FloatingPoint 8 24))
(declare-const x11 (_ FloatingPoint 8 24))
(declare-const x12 (_ FloatingPoint 8 24))
(declare-const x13 (_ FloatingPoint 8 24))
(declare-const x14 (_ FloatingPoint 8 24))
(declare-const x15 (_ FloatingPoint 8 24))
(assert (fp.eq (fp.mul RNE (fp.neg x10) (fp.neg x10)) (fp.mul RNE (fp.mul RNE x12 x14) (fp.div RNE x12 x11))))
(assert (fp.lt (fp.sub RNE (fp.neg x13) (fp.add RNE x11 x12)) (fp.add RNE (fp.div RNE x9 x6) (fp.div RNE x14 x4))))
(check-sat)
