db/data/1939614738864784191540029317576712215.z3.out
sat
-------------------
57.507854933
